0001 33
0002 33
0003 18
0004 22
0005 28
0006 36
0007 23
0008 38
0009 7
0010 14
0011 25
0012 1
0013 31
0014 9
0015 1
0016 0
0017 5
0018 33
0019 25
0020 10
0021 35
0022 12
0023 17
0024 3
0025 13
0026 21
0027 26
0028 1
0029 5
0030 7
0031 9
0032 10
0033 0
0034 36
0035 26
0036 5
0037 0
0038 4
0039 20
0040 36
0041 13
0042 5
0043 38
0044 33
0045 13
0046 28
0047 4
0048 28
0049 1
0050 27
0051 16
0052 28
0053 36
0054 36
0055 27
0056 6
0057 32
0058 29
0059 9
0060 20
0061 26
0062 26
0063 10
0064 0
0065 21
0066 11
0067 10
0068 24
0069 34
0070 35
0071 31
0072 14
0073 33
0074 22
0075 30
0076 33
0077 7
0078 21
0079 1
0080 23
0081 4
0082 13
0083 8
0084 23
0085 28
0086 20
0087 18
0088 12
0089 2
0090 18
0091 29
0092 29
0093 7
0094 3
0095 2
0096 5
0097 10
0098 0
0099 17
0100 25
0101 6
0102 29
0103 3
0104 7
0105 32
0106 22
0107 25
0108 25
0109 6
0110 8
0111 32
0112 2
0113 20
0114 33
0115 13
0116 0
0117 15
0118 34
0119 12
0120 5
0121 38
0122 31
0123 17
0124 21
0125 9
0126 4
0127 1
0128 7
0129 9
0130 36
0131 0
0132 18
0133 18
0134 26
0135 16
0136 1
0137 26
0138 12
0139 10
0140 22
0141 2
0142 27
0143 1
0144 8
0145 12
0146 3
0147 6
0148 3
0149 8
0150 17
0151 17
0152 11
0153 7
0154 10
0155 31
0156 32
0157 31
0158 19
0159 38
0160 11
0161 15
0162 30
0163 7
0164 5
0165 9
0166 38
0167 22
0168 29
0169 3
0170 10
0171 4
0172 14
0173 6
0174 7
0175 16
0176 8
0177 32
0178 23
0179 1
0180 6
0181 18
0182 38
0183 30
0184 19
0185 0
0186 25
0187 28
0188 12
0189 8
0190 2
0191 23
0192 10
0193 16
0194 21
0195 36
0196 13
0197 10
0198 2
0199 26
0200 36
0201 1
0202 37
0203 9
0204 4
0205 1
0206 0
0207 38
0208 16
0209 10
0210 0
0211 3
0212 7
0213 14
0214 23
0215 9
0216 2
0217 37
0218 12
0219 13
0220 15
0221 11
0222 7
0223 26
0224 32
0225 14
0226 21
0227 19
0228 3
0229 31
0230 38
0231 8
0232 0
0233 18
0234 5
0235 22
0236 29
0237 33
0238 25
0239 24
0240 8
0241 35
0242 26
0243 23
0244 9
0245 2
0246 6
0247 16
0248 8
0249 12
0250 5
0251 38
0252 0
0253 10
0254 1
0255 4
0256 18
0257 21
0258 38
0259 3
0260 28
0261 7
0262 18
0263 13
0264 12
0265 5
0266 3
0267 20
0268 6
0269 0
0270 10
0271 9
0272 1
0273 22
0274 34
0275 20
0276 23
0277 5
0278 2
0279 0
0280 28
0281 9
0282 38
0283 24
0284 27
0285 6
0286 13
0287 12
0288 2
0289 18
0290 36
0291 17
0292 8
0293 34
0294 15
0295 14
0296 5
0297 0
0298 28
0299 23
0300 23
0301 19
0302 32
0303 21
0304 21
0305 17
0306 17
0307 17
0308 8
0309 0
0310 17
0311 25
0312 23
0313 28
0314 28
0315 36
0316 13
0317 2
0318 33
0319 5
0320 10
0321 27
0322 9
0323 14
0324 18
0325 1
0326 23
0327 0
0328 12
0329 38
0330 37
0331 0
0332 2
0333 1
0334 19
0335 17
0336 12
0337 7
0338 25
0339 8
0340 20
0341 2
0342 16
0343 0
0344 15
0345 28
0346 6
0347 22
0348 9
0349 0
0350 18
0351 35
0352 34
0353 34
0354 34
0355 34
0356 20
0357 31
0358 34
0359 38
0360 36
0361 34
0362 20
0363 22
0364 0
0365 28
0366 30
0367 37
0368 27
0369 22
0370 22
0371 17
0372 6
0373 12
0374 24
0375 25
0376 5
0377 3
0378 10
0379 32
0380 35
0381 9
0382 13
0383 7
0384 28
0385 15
0386 18
0387 1
0388 14
0389 27
0390 31
0391 21
0392 15
0393 30
0394 14
0395 30
0396 15
0397 15
0398 15
0399 26
0400 4
0401 36
0402 32
0403 36
0404 34
0405 16
0406 10
0407 6
0408 11
0409 24
0410 37
0411 1
0412 28
0413 25
0414 15
0415 0
0416 23
0417 20
0418 20
0419 5
0420 5
0421 31
0422 18
0423 18
0424 12
0425 0
0426 3
0427 28
0428 38
0429 38
0430 36
0431 15
0432 19
0433 17
0434 37
0435 1
0436 35
0437 21
0438 27
0439 8
0440 0
0441 28
0442 12
0443 9
0444 9
0445 9
0446 9
0447 8
0448 19
0449 14
0450 31
0451 26
0452 25
0453 25
0454 12
0455 18
0456 17
0457 2
0458 10
0459 10
0460 3
0461 4
0462 1
0463 8
0464 29
0465 35
0466 19
0467 3
0468 4
0469 0
0470 10
0471 27
0472 11
0473 8
0474 12
0475 22
0476 5
0477 15
0478 34
0479 28
0480 36
0481 10
0482 22
0483 1
0484 24
0485 38
0486 1
0487 38
0488 36
0489 0
0490 24
0491 25
0492 12
0493 36
0494 27
0495 13
0496 23
0497 26
0498 28
0499 31
0500 33
0501 18
0502 12
0503 10
0504 30
0505 35
0506 0
0507 21
0508 38
0509 19
0510 5
0511 1
0512 15
0513 17
0514 3
0515 7
0516 16
0517 34
0518 9
0519 10
0520 4
0521 24
0522 17
0523 9
0524 1
0525 26
0526 29
0527 33
0528 28
0529 16
0530 18
0531 6
0532 12
0533 0
0534 10
0535 22
0536 7
0537 36
0538 6
0539 20
0540 6
0541 36
0542 25
0543 38
0544 2
0545 6
0546 38
0547 3
0548 5
0549 25
0550 5
0551 16
0552 24
0553 18
0554 7
0555 1
0556 9
0557 12
0558 22
0559 29
0560 11
0561 5
0562 3
0563 26
0564 1
0565 19
0566 31
0567 36
0568 9
0569 28
0570 31
0571 20
0572 34
0573 11
0574 9
0575 25
0576 14
0577 3
0578 12
0579 26
0580 26
0581 35
0582 0
0583 36
0584 31
0585 37
0586 18
0587 22
0588 25
0589 0
0590 5
0591 27
0592 16
0593 28
0594 24
0595 1
0596 12
0597 7
0598 30
0599 0
0600 0
0601 13
0602 22
0603 1
0604 8
0605 28
0606 22
0607 34
0608 0
0609 0
0610 5
0611 24
0612 14
0613 1
0614 7
0615 12
0616 0
0617 8
0618 10
0619 15
0620 9
0621 3
0622 3
0623 22
0624 5
0625 1
0626 38
0627 9
0628 18
0629 12
0630 14
0631 10
0632 6
0633 0
0634 2
0635 7
0636 29
0637 7
0638 36
0639 17
0640 14
0641 38
0642 11
0643 18
0644 26
0645 16
0646 7
0647 4
0648 7
0649 1
0650 9
0651 2
0652 18
0653 36
0654 1
0655 1
0656 0
0657 0
0658 27
0659 38
0660 35
0661 33
0662 26
0663 6
0664 36
0665 38
0666 28
0667 8
0668 30
0669 0
0670 3
0671 14
0672 5
0673 1
0674 12
0675 22
0676 0
0677 16
0678 24
0679 8
0680 3
0681 32
0682 11
